(declare-const c_0 Real)
(declare-const c_1 Real)
(declare-const c_2 Real)
(declare-const c_3 Real)
(declare-const c_4 Real)
(declare-const c_5 Real)
(declare-const c_6 Real)
(declare-const c_7 Real)
(declare-const c_8 Real)
(declare-const c_9 Real)
(declare-const c_10 Real)
(declare-const c_11 Real)
(declare-const c_12 Real)
(declare-const c_13 Real)
(declare-const c_14 Real)
(declare-const c_15 Real)
(declare-const c_16 Real)
(declare-const c_17 Real)
(declare-const c_18 Real)
(declare-const c_19 Real)
(declare-const s_0 Real)
(declare-const s_1 Real)
(declare-const s_2 Real)
(declare-const s_3 Real)
(declare-const s_4 Real)
(declare-const s_5 Real)
(declare-const s_6 Real)
(declare-const s_7 Real)
(declare-const s_8 Real)
(declare-const s_9 Real)
(declare-const s_10 Real)
(declare-const s_11 Real)
(declare-const s_12 Real)
(declare-const s_13 Real)
(declare-const s_14 Real)
(declare-const s_15 Real)
(declare-const s_16 Real)
(declare-const s_17 Real)
(declare-const s_18 Real)
(declare-const s_19 Real)
(assert (forall ((x Real) (y Real) (z Real) ) (=> (and (>= (+ (* 1024 1) (* 1 x ) ) 0) (>= (+ (* 1023 1) (* (- 1) x ) ) 0) (>= (+ (* 1024 1) (* 1 y ) ) 0) (>= (+ (* 1023 1) (* (- 1) y ) ) 0) (>= (+ (* 1024 1) (* 1 z ) ) 0) (>= (+ (* 1023 1) (* (- 1) z ) ) 0) ) (>= (+ (* 1 s_0 ) (* 1 s_1 x ) (* 1 s_2 x y ) (* 1 s_3 x z ) (* 1 s_4 x x ) (* 1 s_5 y ) (* 1 s_6 y z ) (* 1 s_7 y y ) (* 1 s_8 z ) (* 1 s_9 z z ) ) 0) )))
(assert (forall ((x Real) (y Real) (z Real) ) (=> (and (>= (+ (* 1024 1) (* 1 x ) ) 0) (>= (+ (* 1023 1) (* (- 1) x ) ) 0) (>= (+ (* 1024 1) (* 1 y ) ) 0) (>= (+ (* 1023 1) (* (- 1) y ) ) 0) (>= (+ (* 1024 1) (* 1 z ) ) 0) (>= (+ (* 1023 1) (* (- 1) z ) ) 0) ) (>= (+ (* 1 c_0 ) (* 1 c_1 x ) (* 1 c_2 x y ) (* 1 c_3 x z ) (* 1 c_4 x x ) (* 1 c_5 y ) (* 1 c_6 y z ) (* 1 c_7 y y ) (* 1 c_8 z ) (* 1 c_9 z z ) ) 0) )))
(assert (forall ((x Real) (y Real) (z Real) ) (=> (and (>= (+ (* (- 1) 1) (* 1 x ) (* (- 1) y ) ) 0) (>= (+ (* 4191233 1) (* 2048 x ) (* (- 1023) y ) (* 1023 z ) ) 0) (>= (+ (* 1023 1) (* (- 1) x ) ) 0) (>= (+ (* 4095 1) (* 2 x ) (* 1 y ) (* (- 1) z ) ) 0) (>= (+ (* 1024 1) (* 1 z ) ) 0) (>= (+ (* 1024 1) (* 1 y ) ) 0) (>= (+ (* 1048576 1) (* 1 x ) (* 1023 z ) ) 0) (>= (+ (* 1 s_0 ) (* 1 s_1 x ) (* 1 s_2 x y ) (* 1 s_3 x z ) (* 1 s_4 x x ) (* 1 s_5 y ) (* 1 s_6 y z ) (* 1 s_7 y y ) (* 1 s_8 z ) (* 1 s_9 z z ) ) 0) ) (>= (+ (* 1 s_0 ) (* (- 1) s_1 x ) (* 1 s_1 y ) (* (- 1) s_2 x z ) (* 1 s_2 y z ) (* (- 1) s_3 x ) (* (- 1) s_3 x z ) (* 1 s_3 y ) (* 1 s_3 y z ) (* (- 2) s_4 x y ) (* 1 s_4 x x ) (* 1 s_4 y y ) (* 1 s_5 z ) (* 1 s_6 z ) (* 1 s_6 z z ) (* 1 s_7 z z ) (* 1 s_8 ) (* 1 s_8 z ) (* 1 s_9 ) (* 2 s_9 z ) (* 1 s_9 z z ) ) 0) )))
(assert (forall ((x Real) (y Real) (z Real) ) (=> (and (>= (+ (* (- 1) 1) (* 1 x ) (* (- 1) y ) ) 0) (>= (+ (* 4191233 1) (* 2048 x ) (* (- 1023) y ) (* 1023 z ) ) 0) (>= (+ (* 1023 1) (* (- 1) x ) ) 0) (>= (+ (* 4095 1) (* 2 x ) (* 1 y ) (* (- 1) z ) ) 0) (>= (+ (* 1024 1) (* 1 z ) ) 0) (>= (+ (* 1024 1) (* 1 y ) ) 0) (>= (+ (* 1048576 1) (* 1 x ) (* 1023 z ) ) 0) (>= (+ (* 1 s_0 ) (* 1 s_1 x ) (* 1 s_2 x y ) (* 1 s_3 x z ) (* 1 s_4 x x ) (* 1 s_5 y ) (* 1 s_6 y z ) (* 1 s_7 y y ) (* 1 s_8 z ) (* 1 s_9 z z ) ) 0) ) (>= (+ (* 1 c_0 ) (* (- 1) c_1 x ) (* 1 c_1 y ) (* (- 1) c_2 x z ) (* 1 c_2 y z ) (* (- 1) c_3 x ) (* (- 1) c_3 x z ) (* 1 c_3 y ) (* 1 c_3 y z ) (* (- 2) c_4 x y ) (* 1 c_4 x x ) (* 1 c_4 y y ) (* 1 c_5 z ) (* 1 c_6 z ) (* 1 c_6 z z ) (* 1 c_7 z z ) (* 1 c_8 ) (* 1 c_8 z ) (* 1 c_9 ) (* 2 c_9 z ) (* 1 c_9 z z ) ) 0) )))
(assert (forall ((x Real) (y Real) (z Real) ) (=> (and (>= (+ (* (- 1) 1) (* 1 x ) (* (- 1) y ) ) 0) (>= (+ (* 4191233 1) (* 2048 x ) (* (- 1023) y ) (* 1023 z ) ) 0) (>= (+ (* 1023 1) (* (- 1) x ) ) 0) (>= (+ (* 4095 1) (* 2 x ) (* 1 y ) (* (- 1) z ) ) 0) (>= (+ (* 1024 1) (* 1 z ) ) 0) (>= (+ (* 1024 1) (* 1 y ) ) 0) (>= (+ (* 1048576 1) (* 1 x ) (* 1023 z ) ) 0) (>= (+ (* 1 s_0 ) (* 1 s_1 x ) (* 1 s_2 x y ) (* 1 s_3 x z ) (* 1 s_4 x x ) (* 1 s_5 y ) (* 1 s_6 y z ) (* 1 s_7 y y ) (* 1 s_8 z ) (* 1 s_9 z z ) ) 0) ) (>= (+ (* (- 1) 1) (* 2 c_1 x ) (* (- 1) c_1 y ) (* 1 c_2 x y ) (* 1 c_2 x z ) (* (- 1) c_2 y z ) (* 1 c_3 x ) (* 2 c_3 x z ) (* (- 1) c_3 y ) (* (- 1) c_3 y z ) (* 2 c_4 x y ) (* (- 1) c_4 y y ) (* 1 c_5 y ) (* (- 1) c_5 z ) (* 1 c_6 y z ) (* (- 1) c_6 z ) (* (- 1) c_6 z z ) (* 1 c_7 y y ) (* (- 1) c_7 z z ) (* (- 1) c_8 ) (* (- 1) c_9 ) (* (- 2) c_9 z ) ) 0) )))
(assert (forall ((x Real) (y Real) (z Real) ) (=> (and (>= (+ (* (- 1) x ) (* 1 y ) ) 0) (>= (+ (* 4191233 1) (* 2048 x ) (* (- 1023) y ) (* 1023 z ) ) 0) (>= (+ (* 1023 1) (* (- 1) x ) ) 0) (>= (+ (* 4095 1) (* 2 x ) (* 1 y ) (* (- 1) z ) ) 0) (>= (+ (* 1024 1) (* 1 z ) ) 0) (>= (+ (* 1024 1) (* 1 y ) ) 0) (>= (+ (* 1048576 1) (* 1 x ) (* 1023 z ) ) 0) (>= (+ (* 1 s_0 ) (* 1 s_1 x ) (* 1 s_2 x y ) (* 1 s_3 x z ) (* 1 s_4 x x ) (* 1 s_5 y ) (* 1 s_6 y z ) (* 1 s_7 y y ) (* 1 s_8 z ) (* 1 s_9 z z ) ) 0) ) (>= (+ (* 1 s_10 ) (* 1 s_11 x ) (* 1 s_12 x y ) (* 1 s_13 x z ) (* 1 s_14 x x ) (* 1 s_15 y ) (* 1 s_16 y z ) (* 1 s_17 y y ) (* 1 s_18 z ) (* 1 s_19 z z ) ) 0) )))
(assert (forall ((x Real) (y Real) (z Real) ) (=> (and (>= (+ (* (- 1) x ) (* 1 y ) ) 0) (>= (+ (* 4191233 1) (* 2048 x ) (* (- 1023) y ) (* 1023 z ) ) 0) (>= (+ (* 1023 1) (* (- 1) x ) ) 0) (>= (+ (* 4095 1) (* 2 x ) (* 1 y ) (* (- 1) z ) ) 0) (>= (+ (* 1024 1) (* 1 z ) ) 0) (>= (+ (* 1024 1) (* 1 y ) ) 0) (>= (+ (* 1048576 1) (* 1 x ) (* 1023 z ) ) 0) (>= (+ (* 1 s_0 ) (* 1 s_1 x ) (* 1 s_2 x y ) (* 1 s_3 x z ) (* 1 s_4 x x ) (* 1 s_5 y ) (* 1 s_6 y z ) (* 1 s_7 y y ) (* 1 s_8 z ) (* 1 s_9 z z ) ) 0) ) (>= (+ (* 1 c_10 ) (* 1 c_11 x ) (* 1 c_12 x y ) (* 1 c_13 x z ) (* 1 c_14 x x ) (* 1 c_15 y ) (* 1 c_16 y z ) (* 1 c_17 y y ) (* 1 c_18 z ) (* 1 c_19 z z ) ) 0) )))

(check-sat)
(get-model)
